(set-logic QF_LRA)
(set-info :ran/ran_11_1_lia.smt2)
(set-info :smt-lib-version 2.0)
(declare-fun x0 () Real)
(declare-fun x1 () Real)
(declare-fun x2 () Real)
(declare-fun x3 () Real)
(declare-fun x4 () Real)
(declare-fun x5 () Real)
(declare-fun x6 () Real)
(declare-fun x7 () Real)
(declare-fun x8 () Real)
(declare-fun x9 () Real)
(declare-fun x10 () Real)
(define-fun ie0 () Bool (<= (+ (* 88 x8) (* 0 x0) ) (- 96)))
(define-fun ie1 () Bool (<= (+ (* 79 x9) (* 8 x2) ) (- 8)))
(define-fun ie2 () Bool (<= (+ (* (- 76) x8) (* 28 x4) ) 35))
(define-fun ie3 () Bool (<= (+ (* 33 x5) (* 18 x0) ) 93))
(define-fun ie4 () Bool (<= (+ (* (- 4) x7) (* 46 x8) ) (- 21)))
(define-fun ie5 () Bool (<= (+ (* (- 95) x4) (* 74 x3) ) 74))
(define-fun ie6 () Bool (<= (+ (* 99 x9) (* (- 49) x6) ) (- 56)))
(define-fun ie7 () Bool (<= (+ (* (- 92) x6) (* (- 63) x3) ) (- 79)))
(define-fun ie8 () Bool (<= (+ (* 29 x8) (* 8 x1) ) 11))
(define-fun ie9 () Bool (<= (+ (* (- 57) x2) (* 55 x1) ) 89))
(define-fun ie10 () Bool (<= (+ (* 48 x9) (* 35 x6) ) 52))
(assert ie0)
(assert ie1)
(assert ie2)
(assert ie3)
(assert ie4)
(assert ie5)
(assert ie6)
(assert ie7)
(assert ie8)
(assert ie9)
(assert ie10)
(check-sat)
(exit)
